c FILE: i160-114

c SOURCE: From steinlib

c DESCRIPTION: Steinlib instance with 160 nodes and 812 edges.

p edge 160 812
e 1 11
e 1 14
e 1 32
e 1 37
e 1 45
e 1 47
e 1 59
e 1 76
e 1 81
e 1 89
e 1 99
e 1 110
e 1 112
e 1 123
e 1 128
e 2 7
e 2 15
e 2 155
e 3 17
e 3 39
e 3 71
e 3 78
e 3 81
e 3 91
e 3 93
e 3 99
e 3 102
e 3 109
e 3 116
e 3 125
e 4 32
e 4 39
e 4 40
e 4 45
e 4 54
e 4 61
e 4 93
e 4 104
e 4 113
e 4 136
e 4 139
e 4 142
e 4 145
e 4 152
e 4 153
e 5 29
e 5 57
e 5 84
e 5 90
e 5 101
e 5 138
e 6 7
e 6 19
e 6 33
e 6 40
e 6 77
e 6 87
e 6 103
e 6 109
e 6 117
e 6 118
e 6 131
e 6 146
e 6 148
e 7 25
e 7 32
e 7 42
e 7 45
e 7 92
e 7 95
e 7 102
e 7 120
e 7 126
e 7 146
e 7 149
e 7 150
e 7 153
e 7 156
e 7 158
e 7 159
e 8 36
e 8 62
e 8 70
e 8 78
e 8 107
e 8 145
e 9 22
e 9 23
e 9 25
e 9 50
e 9 52
e 9 75
e 9 80
e 9 106
e 9 139
e 9 153
e 9 155
e 10 30
e 10 46
e 10 55
e 10 78
e 10 84
e 10 85
e 10 123
e 10 142
e 11 17
e 11 39
e 11 41
e 11 42
e 11 74
e 11 116
e 11 118
e 12 55
e 12 73
e 12 84
e 12 130
e 12 137
e 13 37
e 13 61
e 13 81
e 13 87
e 13 110
e 13 111
e 13 124
e 13 131
e 13 142
e 13 144
e 14 22
e 14 45
e 14 85
e 14 108
e 14 109
e 14 124
e 15 22
e 15 32
e 15 37
e 15 39
e 15 53
e 15 64
e 15 86
e 15 101
e 15 113
e 15 124
e 15 135
e 15 142
e 16 25
e 16 107
e 16 108
e 16 110
e 16 121
e 17 41
e 17 50
e 17 88
e 17 103
e 17 110
e 17 111
e 17 145
e 18 21
e 18 43
e 18 50
e 18 78
e 19 27
e 19 42
e 19 55
e 19 74
e 19 76
e 19 111
e 19 137
e 19 149
e 20 45
e 20 53
e 20 82
e 20 99
e 20 115
e 20 148
e 20 155
e 21 28
e 21 36
e 21 46
e 21 78
e 21 115
e 21 121
e 21 143
e 21 144
e 22 44
e 22 78
e 22 109
e 22 123
e 22 145
e 22 156
e 23 30
e 23 31
e 23 34
e 23 47
e 23 61
e 23 62
e 23 77
e 23 112
e 23 117
e 23 118
e 23 119
e 23 126
e 23 128
e 23 129
e 23 145
e 24 50
e 24 55
e 24 61
e 24 88
e 24 100
e 24 106
e 24 111
e 24 121
e 24 135
e 24 142
e 24 151
e 25 32
e 25 63
e 25 80
e 25 98
e 25 106
e 25 108
e 25 115
e 25 116
e 25 119
e 25 124
e 26 31
e 26 46
e 26 47
e 26 66
e 26 69
e 26 74
e 26 75
e 26 92
e 26 101
e 26 118
e 26 119
e 26 124
e 26 142
e 26 149
e 26 155
e 27 41
e 27 52
e 27 67
e 27 99
e 27 110
e 27 126
e 27 134
e 27 141
e 28 49
e 28 57
e 28 78
e 28 86
e 28 89
e 28 129
e 28 131
e 28 138
e 28 151
e 29 43
e 29 53
e 29 55
e 29 106
e 29 112
e 29 147
e 29 153
e 29 160
e 30 34
e 30 36
e 30 43
e 30 73
e 30 89
e 30 90
e 30 93
e 30 102
e 30 105
e 30 107
e 30 113
e 30 131
e 30 135
e 30 139
e 31 36
e 31 70
e 31 81
e 31 98
e 31 102
e 31 155
e 32 39
e 32 43
e 32 50
e 32 58
e 32 66
e 32 68
e 32 83
e 32 93
e 32 103
e 32 108
e 32 110
e 32 123
e 32 128
e 32 155
e 32 158
e 33 39
e 33 54
e 33 80
e 33 99
e 33 106
e 33 128
e 33 149
e 33 151
e 33 154
e 33 159
e 34 48
e 34 64
e 34 69
e 34 74
e 34 95
e 34 97
e 34 112
e 34 133
e 34 144
e 34 145
e 34 151
e 35 37
e 35 52
e 35 56
e 35 66
e 35 76
e 35 118
e 35 139
e 35 152
e 36 57
e 36 60
e 36 70
e 36 93
e 36 109
e 36 154
e 36 160
e 37 72
e 37 85
e 37 89
e 37 95
e 37 116
e 37 120
e 37 134
e 37 140
e 37 156
e 38 47
e 38 66
e 38 82
e 38 87
e 38 103
e 38 107
e 38 108
e 38 136
e 38 160
e 39 53
e 39 63
e 39 65
e 39 118
e 39 130
e 39 132
e 39 152
e 40 63
e 40 69
e 40 80
e 40 84
e 40 85
e 40 106
e 40 111
e 40 113
e 40 114
e 40 149
e 40 158
e 41 48
e 41 53
e 41 65
e 41 66
e 41 146
e 41 153
e 42 95
e 42 160
e 43 47
e 43 55
e 43 58
e 43 75
e 43 86
e 43 119
e 43 143
e 43 148
e 43 154
e 44 75
e 44 79
e 44 106
e 44 121
e 44 155
e 45 85
e 45 86
e 45 90
e 45 121
e 45 128
e 45 140
e 45 144
e 46 53
e 46 71
e 46 82
e 46 98
e 46 99
e 46 118
e 46 129
e 46 139
e 46 153
e 47 59
e 47 81
e 47 90
e 47 99
e 47 102
e 47 111
e 47 122
e 47 136
e 47 157
e 48 67
e 48 90
e 48 91
e 48 101
e 48 105
e 48 126
e 48 144
e 49 50
e 49 57
e 49 65
e 49 79
e 49 84
e 49 86
e 49 94
e 49 110
e 49 112
e 49 138
e 49 155
e 49 160
e 50 83
e 50 89
e 50 146
e 51 60
e 51 87
e 51 92
e 51 103
e 51 141
e 52 83
e 52 87
e 52 103
e 52 104
e 52 114
e 52 120
e 52 157
e 53 60
e 53 68
e 53 69
e 53 121
e 53 142
e 53 154
e 53 159
e 54 78
e 54 86
e 54 115
e 54 122
e 54 138
e 54 143
e 54 145
e 55 75
e 55 99
e 55 105
e 55 122
e 55 134
e 55 137
e 56 78
e 56 127
e 56 148
e 57 58
e 57 115
e 57 131
e 57 137
e 57 152
e 58 62
e 58 82
e 58 87
e 58 152
e 59 70
e 59 85
e 59 94
e 59 151
e 60 70
e 60 71
e 60 112
e 60 131
e 60 134
e 60 141
e 60 149
e 61 69
e 61 121
e 61 133
e 61 137
e 61 139
e 62 97
e 62 102
e 62 107
e 62 126
e 62 129
e 62 132
e 63 65
e 63 94
e 63 97
e 63 122
e 63 154
e 64 82
e 64 110
e 64 150
e 65 69
e 65 89
e 65 92
e 65 93
e 65 108
e 65 114
e 65 135
e 65 152
e 65 156
e 66 75
e 66 76
e 66 86
e 66 97
e 66 123
e 66 134
e 66 135
e 66 147
e 66 153
e 67 75
e 67 137
e 67 140
e 67 152
e 67 153
e 67 158
e 68 88
e 68 99
e 68 105
e 68 135
e 68 149
e 68 156
e 69 85
e 69 89
e 69 91
e 69 102
e 69 112
e 69 135
e 69 137
e 70 133
e 70 140
e 70 160
e 71 80
e 71 87
e 71 118
e 71 129
e 72 108
e 72 134
e 73 80
e 73 86
e 73 87
e 73 107
e 73 129
e 73 146
e 74 100
e 74 118
e 74 121
e 74 122
e 74 129
e 74 134
e 74 135
e 74 137
e 74 139
e 74 157
e 74 158
e 75 89
e 75 128
e 75 131
e 75 149
e 76 85
e 76 134
e 76 135
e 76 151
e 76 156
e 77 90
e 77 112
e 77 135
e 77 143
e 77 150
e 77 157
e 78 85
e 78 90
e 78 91
e 78 119
e 78 141
e 78 152
e 79 90
e 79 147
e 80 84
e 80 86
e 80 99
e 80 129
e 80 140
e 80 151
e 80 153
e 81 97
e 81 110
e 81 115
e 81 121
e 81 122
e 81 128
e 81 154
e 82 96
e 82 103
e 82 104
e 82 112
e 82 135
e 82 150
e 83 135
e 83 140
e 83 141
e 84 86
e 84 102
e 84 105
e 84 113
e 84 150
e 85 86
e 85 108
e 85 112
e 85 118
e 85 129
e 85 150
e 85 158
e 86 115
e 86 120
e 86 122
e 86 124
e 86 131
e 86 138
e 86 148
e 87 99
e 87 106
e 87 111
e 87 119
e 87 135
e 87 144
e 87 149
e 87 155
e 88 107
e 88 112
e 88 119
e 88 124
e 88 134
e 89 106
e 90 113
e 90 116
e 90 126
e 90 148
e 91 100
e 91 102
e 91 115
e 91 120
e 91 144
e 91 159
e 92 101
e 92 123
e 92 130
e 92 146
e 93 104
e 93 111
e 93 113
e 93 115
e 93 121
e 94 103
e 94 112
e 94 139
e 94 146
e 95 142
e 95 157
e 95 158
e 96 102
e 96 125
e 96 142
e 96 148
e 96 150
e 97 136
e 97 150
e 97 155
e 97 158
e 98 109
e 98 118
e 98 136
e 98 142
e 98 143
e 99 104
e 99 107
e 99 129
e 100 107
e 100 125
e 100 126
e 100 131
e 100 132
e 100 141
e 101 103
e 101 119
e 101 134
e 101 139
e 101 140
e 102 112
e 102 138
e 102 152
e 103 108
e 103 130
e 103 131
e 103 134
e 103 160
e 104 111
e 104 118
e 104 125
e 104 139
e 104 151
e 105 114
e 105 116
e 105 128
e 105 143
e 105 157
e 106 108
e 107 125
e 107 145
e 108 116
e 108 128
e 108 145
e 110 111
e 110 150
e 111 112
e 111 134
e 112 130
e 112 140
e 113 126
e 114 145
e 114 158
e 115 155
e 116 121
e 116 146
e 117 124
e 117 151
e 118 119
e 118 136
e 118 144
e 118 153
e 120 125
e 121 146
e 122 145
e 122 153
e 122 156
e 123 148
e 123 153
e 123 160
e 124 133
e 126 128
e 127 128
e 127 141
e 127 158
e 128 152
e 129 144
e 130 134
e 130 136
e 130 138
e 130 139
e 130 143
e 131 140
e 132 145
e 132 146
e 132 154
e 133 157
e 134 154
e 135 138
e 135 143
e 135 147
e 136 149
e 136 154
e 136 158
e 137 138
e 138 145
e 138 158
e 139 142
e 139 145
e 139 148
e 139 155
e 140 144
e 141 160
e 142 147
e 142 149
e 142 158
e 143 144
e 143 151
e 143 153
e 145 154
e 145 160
e 146 158
e 146 159
e 148 153
e 149 154
e 150 151
e 150 156
e 152 157
e 155 160
e 157 158
